
Gurobi 6.0.4 (win64) logging started 06/20/15 12:15:02

Read LP format model from file C:\MT\repository\VRPTWMS\instances\mip\fuel\N10-C_DV100-C_SV30_F6_0_No_1.lp
Reading time = 0.01 seconds
(null): 621 rows, 288 columns, 2553 nonzeros
Optimize a model with 621 rows, 288 columns and 2553 nonzeros
Model has 1000 quadratic constraints
Coefficient statistics:
  Matrix range    [1e+00, 1e+06]
  Objective range [2e+04, 1e+07]
  Bounds range    [1e+00, 1e+06]
  RHS range       [1e+00, 1e+06]
Presolve removed 46 rows and 14 columns
Presolve time: 0.13s
Presolved: 2415 rows, 1194 columns, 13331 nonzeros
Variable types: 920 continuous, 274 integer (232 binary)
Found heuristic solution: objective 1.035386e+08

Root relaxation: objective 1.084414e+06, 89 iterations, 0.00 seconds

    Nodes    |    Current Node    |     Objective Bounds      |     Work
 Expl Unexpl |  Obj  Depth IntInf | Incumbent    BestBd   Gap | It/Node Time

     0     0 1084414.36    0   32 1.0354e+08 1084414.36  99.0%     -    0s
H    0     0                    4.216440e+07 1084414.36  97.4%     -    0s
     0     0 1311345.82    0   33 4.2164e+07 1311345.82  96.9%     -    0s
     0     0 1376833.33    0   37 4.2164e+07 1376833.33  96.7%     -    0s
     0     0 1384024.86    0   50 4.2164e+07 1384024.86  96.7%     -    0s
     0     0 1391647.30    0   55 4.2164e+07 1391647.30  96.7%     -    0s
H    0     0                    3.190090e+07 1391647.30  95.6%     -    0s
     0     0 1398333.33    0   41 3.1901e+07 1398333.33  95.6%     -    0s
     0     0 1398333.33    0   39 3.1901e+07 1398333.33  95.6%     -    0s
     0     0 1398333.33    0   40 3.1901e+07 1398333.33  95.6%     -    0s
     0     0 1398333.33    0   32 3.1901e+07 1398333.33  95.6%     -    0s
     0     2 1398333.33    0   27 3.1901e+07 1398333.33  95.6%     -    0s
*  176   112              14    3.185230e+07 1455757.55  95.4%  22.6    0s
H  246   172                    3.185010e+07 1455757.55  95.4%  24.7    0s
H  496   317                    3.169510e+07 1569200.00  95.0%  24.6    1s
H  762   424                    3.167910e+07 1601170.25  94.9%  21.5    2s
H  773   410                    2.144600e+07 1601170.25  92.5%  21.2    4s
   779   416 1601170.25   12   58 2.1446e+07 1601170.25  92.5%  23.9    5s
  2155   275 1.1964e+07   22   29 2.1446e+07 1777132.92  91.7%  31.1   10s

Cutting planes:
  Learned: 2
  Gomory: 3
  Cover: 1
  Implied bound: 11
  Clique: 3
  MIR: 1
  Flow cover: 10
  GUB cover: 2
  Zero half: 15

Explored 3511 nodes (118704 simplex iterations) in 14.77 seconds
Thread count was 2 (of 4 available processors)

Optimal solution found (tolerance 1.00e-04)
Best objective 2.144600000000e+07, best bound 2.144600000000e+07, gap 0.0%
k_c1	80000.0
k_c10	195785.0
k_c2	120000.0
k_c3	60000.0
k_c4	65785.0
k_c5	235785.0
k_c6	155785.0
k_c7	105785.0
k_c8	150000.0
k_c9	285785.0
k_dN	-0.0
o_1	0.0
o_10	0.0
o_2	0.0
o_3	0.0
o_4	0.0
o_5	0.0
o_6	0.0
o_7	0.0
o_8	0.0
o_9	0.0
p_1	0.0
p_10	0.0
p_2	0.0
p_3	0.0
p_4	0.0
p_5	0.0
p_6	0.0
p_7	0.0
p_8	0.0
p_9	0.0
phi_c1	22074.0
phi_c10	26230.0
phi_c2	28095.0
phi_c3	16682.0
phi_c4	3498.0
phi_c5	35328.0
phi_c6	19507.0
phi_c7	18169.0
phi_c8	37601.0
phi_c9	40151.0
phi_d0	60000.0
phi_dN	-0.0
tauD_c1	650000.0
tauD_c10	329875.0
tauD_c2	450000.0
tauD_c3	760150.0
tauD_c4	584825.0
tauD_c5	235875.0
tauD_c6	445000.0
tauD_c7	500000.0
tauD_c8	334475.0
tauD_c9	157850.0
tauD_d0	-0.0
tauD_dN	1000000.0
tauS_c1	881750.0
tauS_c10	871450.0
tauS_c2	879600.0
tauS_c3	871450.0
tauS_c4	907500.0
tauS_c5	876275.0
tauS_c6	858975.0
tauS_c7	855975.0
tauS_c8	881200.0
tauS_c9	873500.0
tauS_d0	-0.0
tauS_dN	1000000.0
x_c10_c6	1.0
x_c1_c3	1.0
x_c2_c1	1.0
x_c3_dN	1.0
x_c4_dN	1.0
x_c5_c10	1.0
x_c6_c7	1.0
x_c7_c4	1.0
x_c8_c2	1.0
x_c9_c5	1.0
x_d0_c8	1.0
x_d0_c9	1.0
